ilp_joint_2/output/nitrogen cycle_ilp.lp
Maximize
 
Subject To
 constraint2_550: <= 1
 constraint2_551: <= 1
 constraint2_552: <= 1
 constraint2_553: <= 1
Bounds
End
