ilp_joint_2/output/nitrogen cycle_ilp.mps
NAME nitrogen cycle_srl_ilp
* Max problem is converted into Min one
ROWS
 N  OBJ
 L  constraint2_550
 L  constraint2_551
 L  constraint2_552
 L  constraint2_553
COLUMNS
RHS
    RHS1      constraint2_550  1
    RHS1      constraint2_551  1
    RHS1      constraint2_552  1
    RHS1      constraint2_553  1
BOUNDS
ENDATA
