ilp_joint_2/output/nitrogen cycle_ilp.sol
# Solution for model nitrogen cycle_srl_ilp
# Objective value = 0
